
(set-logic HORN)
(declare-fun Z_2455 () Int)
(declare-fun S_566 (Int) Int)
(declare-fun diseqInt (Int Int) Bool)
(declare-fun unS_805 (Int Int) Bool)
(declare-fun isZ_524 (Int) Bool)
(declare-fun isS_524 (Int) Bool)
(assert (forall ((x_77369 Int))
	(unS_805 x_77369 (S_566 x_77369))))
(assert (isZ_524 Z_2455))
(assert (forall ((x_77371 Int))
	(isS_524 (S_566 x_77371))))
(assert (forall ((x_77372 Int))
	(diseqInt Z_2455 (S_566 x_77372))))
(assert (forall ((x_77373 Int))
	(diseqInt (S_566 x_77373) Z_2455)))
(assert (forall ((x_77374 Int) (x_77375 Int))
	(=> (diseqInt x_77374 x_77375) (diseqInt (S_566 x_77374) (S_566 x_77375)))))
(declare-fun add_430 (Int Int Int) Bool)
(declare-fun minus_423 (Int Int Int) Bool)
(declare-fun le_402 (Int Int) Bool)
(declare-fun ge_402 (Int Int) Bool)
(declare-fun lt_422 (Int Int) Bool)
(declare-fun gt_405 (Int Int) Bool)
(declare-fun mult_403 (Int Int Int) Bool)
(declare-fun div_402 (Int Int Int) Bool)
(declare-fun mod_404 (Int Int Int) Bool)
(assert (forall ((y_2786 Int))
	(add_430 y_2786 Z_2455 y_2786)))
(assert (forall ((x_77306 Int) (y_2786 Int) (r_536 Int))
	(=> (add_430 r_536 x_77306 y_2786) (add_430 (S_566 r_536) (S_566 x_77306) y_2786))))
(assert (forall ((y_2786 Int))
	(minus_423 Z_2455 Z_2455 y_2786)))
(assert (forall ((x_77306 Int) (y_2786 Int) (r_536 Int))
	(=> (minus_423 r_536 x_77306 y_2786) (minus_423 (S_566 r_536) (S_566 x_77306) y_2786))))
(assert (forall ((y_2786 Int))
	(le_402 Z_2455 y_2786)))
(assert (forall ((x_77306 Int) (y_2786 Int))
	(=> (le_402 x_77306 y_2786) (le_402 (S_566 x_77306) (S_566 y_2786)))))
(assert (forall ((y_2786 Int))
	(ge_402 y_2786 Z_2455)))
(assert (forall ((x_77306 Int) (y_2786 Int))
	(=> (ge_402 x_77306 y_2786) (ge_402 (S_566 x_77306) (S_566 y_2786)))))
(assert (forall ((y_2786 Int))
	(lt_422 Z_2455 (S_566 y_2786))))
(assert (forall ((x_77306 Int) (y_2786 Int))
	(=> (lt_422 x_77306 y_2786) (lt_422 (S_566 x_77306) (S_566 y_2786)))))
(assert (forall ((y_2786 Int))
	(gt_405 (S_566 y_2786) Z_2455)))
(assert (forall ((x_77306 Int) (y_2786 Int))
	(=> (gt_405 x_77306 y_2786) (gt_405 (S_566 x_77306) (S_566 y_2786)))))
(assert (forall ((y_2786 Int))
	(mult_403 Z_2455 Z_2455 y_2786)))
(assert (forall ((x_77306 Int) (y_2786 Int) (r_536 Int) (z_2456 Int))
	(=> (and (mult_403 r_536 x_77306 y_2786) (add_430 z_2456 r_536 y_2786)) (mult_403 z_2456 (S_566 x_77306) y_2786))))
(assert (forall ((x_77306 Int) (y_2786 Int))
	(=> (lt_422 x_77306 y_2786) (div_402 Z_2455 x_77306 y_2786))))
(assert (forall ((x_77306 Int) (y_2786 Int) (r_536 Int) (z_2456 Int))
	(=> (and (ge_402 x_77306 y_2786) (minus_423 z_2456 x_77306 y_2786) (div_402 r_536 z_2456 y_2786)) (div_402 (S_566 r_536) x_77306 y_2786))))
(assert (forall ((x_77306 Int) (y_2786 Int))
	(=> (lt_422 x_77306 y_2786) (mod_404 x_77306 x_77306 y_2786))))
(assert (forall ((x_77306 Int) (y_2786 Int) (r_536 Int) (z_2456 Int))
	(=> (and (ge_402 x_77306 y_2786) (minus_423 z_2456 x_77306 y_2786) (mod_404 r_536 z_2456 y_2786)) (mod_404 r_536 x_77306 y_2786))))
(declare-datatypes ((Bool_402 0)) (((false_402) (true_402))))
(declare-fun diseqBool_191 (Bool_402 Bool_402) Bool)
(declare-fun isfalse_191 (Bool_402) Bool)
(declare-fun istrue_191 (Bool_402) Bool)
(assert (isfalse_191 false_402))
(assert (istrue_191 true_402))
(assert (diseqBool_191 false_402 true_402))
(assert (diseqBool_191 true_402 false_402))
(declare-fun and_405 (Bool_402 Bool_402 Bool_402) Bool)
(declare-fun or_416 (Bool_402 Bool_402 Bool_402) Bool)
(declare-fun hence_402 (Bool_402 Bool_402 Bool_402) Bool)
(declare-fun not_407 (Bool_402 Bool_402) Bool)
(assert (and_405 false_402 false_402 false_402))
(assert (and_405 false_402 true_402 false_402))
(assert (and_405 false_402 false_402 true_402))
(assert (and_405 true_402 true_402 true_402))
(assert (or_416 false_402 false_402 false_402))
(assert (or_416 true_402 true_402 false_402))
(assert (or_416 true_402 false_402 true_402))
(assert (or_416 true_402 true_402 true_402))
(assert (hence_402 true_402 false_402 false_402))
(assert (hence_402 false_402 true_402 false_402))
(assert (hence_402 true_402 false_402 true_402))
(assert (hence_402 true_402 true_402 true_402))
(assert (not_407 true_402 false_402))
(assert (not_407 false_402 true_402))
(declare-datatypes ((pair_140 0)) (((pair_141 (projpair_280 Int) (projpair_281 Int)))))
(declare-fun diseqpair_70 (pair_140 pair_140) Bool)
(declare-fun projpair_284 (Int pair_140) Bool)
(declare-fun projpair_285 (Int pair_140) Bool)
(declare-fun ispair_70 (pair_140) Bool)
(assert (forall ((x_77378 Int) (x_77379 Int))
	(projpair_284 x_77378 (pair_141 x_77378 x_77379))))
(assert (forall ((x_77378 Int) (x_77379 Int))
	(projpair_285 x_77379 (pair_141 x_77378 x_77379))))
(assert (forall ((x_77381 Int) (x_77382 Int))
	(ispair_70 (pair_141 x_77381 x_77382))))
(assert (forall ((x_77383 Int) (x_77384 Int) (x_77385 Int) (x_77386 Int))
	(=> (diseqInt x_77383 x_77385) (diseqpair_70 (pair_141 x_77383 x_77384) (pair_141 x_77385 x_77386)))))
(assert (forall ((x_77383 Int) (x_77384 Int) (x_77385 Int) (x_77386 Int))
	(=> (diseqInt x_77384 x_77386) (diseqpair_70 (pair_141 x_77383 x_77384) (pair_141 x_77385 x_77386)))))
(declare-datatypes ((list_328 0)) (((nil_369) (cons_324 (head_648 Bool_402) (tail_652 list_328)))))
(declare-fun diseqlist_324 (list_328 list_328) Bool)
(declare-fun head_654 (Bool_402 list_328) Bool)
(declare-fun tail_658 (list_328 list_328) Bool)
(declare-fun isnil_369 (list_328) Bool)
(declare-fun iscons_324 (list_328) Bool)
(assert (forall ((x_77388 Bool_402) (x_77389 list_328))
	(head_654 x_77388 (cons_324 x_77388 x_77389))))
(assert (forall ((x_77388 Bool_402) (x_77389 list_328))
	(tail_658 x_77389 (cons_324 x_77388 x_77389))))
(assert (isnil_369 nil_369))
(assert (forall ((x_77391 Bool_402) (x_77392 list_328))
	(iscons_324 (cons_324 x_77391 x_77392))))
(assert (forall ((x_77393 Bool_402) (x_77394 list_328))
	(diseqlist_324 nil_369 (cons_324 x_77393 x_77394))))
(assert (forall ((x_77395 Bool_402) (x_77396 list_328))
	(diseqlist_324 (cons_324 x_77395 x_77396) nil_369)))
(assert (forall ((x_77397 Bool_402) (x_77398 list_328) (x_77399 Bool_402) (x_77400 list_328))
	(=> (diseqBool_191 x_77397 x_77399) (diseqlist_324 (cons_324 x_77397 x_77398) (cons_324 x_77399 x_77400)))))
(assert (forall ((x_77397 Bool_402) (x_77398 list_328) (x_77399 Bool_402) (x_77400 list_328))
	(=> (diseqlist_324 x_77398 x_77400) (diseqlist_324 (cons_324 x_77397 x_77398) (cons_324 x_77399 x_77400)))))
(declare-datatypes ((list_329 0)) (((nil_370) (cons_325 (head_649 Int) (tail_653 list_329)))))
(declare-fun diseqlist_325 (list_329 list_329) Bool)
(declare-fun head_655 (Int list_329) Bool)
(declare-fun tail_659 (list_329 list_329) Bool)
(declare-fun isnil_370 (list_329) Bool)
(declare-fun iscons_325 (list_329) Bool)
(assert (forall ((x_77402 Int) (x_77403 list_329))
	(head_655 x_77402 (cons_325 x_77402 x_77403))))
(assert (forall ((x_77402 Int) (x_77403 list_329))
	(tail_659 x_77403 (cons_325 x_77402 x_77403))))
(assert (isnil_370 nil_370))
(assert (forall ((x_77405 Int) (x_77406 list_329))
	(iscons_325 (cons_325 x_77405 x_77406))))
(assert (forall ((x_77407 Int) (x_77408 list_329))
	(diseqlist_325 nil_370 (cons_325 x_77407 x_77408))))
(assert (forall ((x_77409 Int) (x_77410 list_329))
	(diseqlist_325 (cons_325 x_77409 x_77410) nil_370)))
(assert (forall ((x_77411 Int) (x_77412 list_329) (x_77413 Int) (x_77414 list_329))
	(=> (diseqInt x_77411 x_77413) (diseqlist_325 (cons_325 x_77411 x_77412) (cons_325 x_77413 x_77414)))))
(assert (forall ((x_77411 Int) (x_77412 list_329) (x_77413 Int) (x_77414 list_329))
	(=> (diseqlist_325 x_77412 x_77414) (diseqlist_325 (cons_325 x_77411 x_77412) (cons_325 x_77413 x_77414)))))
(declare-datatypes ((list_330 0)) (((nil_371) (cons_326 (head_650 pair_140) (tail_654 list_330)))))
(declare-fun diseqlist_326 (list_330 list_330) Bool)
(declare-fun head_656 (pair_140 list_330) Bool)
(declare-fun tail_660 (list_330 list_330) Bool)
(declare-fun isnil_371 (list_330) Bool)
(declare-fun iscons_326 (list_330) Bool)
(assert (forall ((x_77416 pair_140) (x_77417 list_330))
	(head_656 x_77416 (cons_326 x_77416 x_77417))))
(assert (forall ((x_77416 pair_140) (x_77417 list_330))
	(tail_660 x_77417 (cons_326 x_77416 x_77417))))
(assert (isnil_371 nil_371))
(assert (forall ((x_77419 pair_140) (x_77420 list_330))
	(iscons_326 (cons_326 x_77419 x_77420))))
(assert (forall ((x_77421 pair_140) (x_77422 list_330))
	(diseqlist_326 nil_371 (cons_326 x_77421 x_77422))))
(assert (forall ((x_77423 pair_140) (x_77424 list_330))
	(diseqlist_326 (cons_326 x_77423 x_77424) nil_371)))
(assert (forall ((x_77425 pair_140) (x_77426 list_330) (x_77427 pair_140) (x_77428 list_330))
	(=> (diseqpair_70 x_77425 x_77427) (diseqlist_326 (cons_326 x_77425 x_77426) (cons_326 x_77427 x_77428)))))
(assert (forall ((x_77425 pair_140) (x_77426 list_330) (x_77427 pair_140) (x_77428 list_330))
	(=> (diseqlist_326 x_77426 x_77428) (diseqlist_326 (cons_326 x_77425 x_77426) (cons_326 x_77427 x_77428)))))
(declare-datatypes ((B_78 0)) (((I_9) (O_10))))
(declare-fun diseqB_2 (B_78 B_78) Bool)
(declare-fun isI_2 (B_78) Bool)
(declare-fun isO_2 (B_78) Bool)
(assert (isI_2 I_9))
(assert (isO_2 O_10))
(assert (diseqB_2 I_9 O_10))
(assert (diseqB_2 O_10 I_9))
(declare-datatypes ((list_331 0)) (((nil_372) (cons_327 (head_651 B_78) (tail_655 list_331)))))
(declare-fun diseqlist_327 (list_331 list_331) Bool)
(declare-fun head_657 (B_78 list_331) Bool)
(declare-fun tail_661 (list_331 list_331) Bool)
(declare-fun isnil_372 (list_331) Bool)
(declare-fun iscons_327 (list_331) Bool)
(assert (forall ((x_77432 B_78) (x_77433 list_331))
	(head_657 x_77432 (cons_327 x_77432 x_77433))))
(assert (forall ((x_77432 B_78) (x_77433 list_331))
	(tail_661 x_77433 (cons_327 x_77432 x_77433))))
(assert (isnil_372 nil_372))
(assert (forall ((x_77435 B_78) (x_77436 list_331))
	(iscons_327 (cons_327 x_77435 x_77436))))
(assert (forall ((x_77437 B_78) (x_77438 list_331))
	(diseqlist_327 nil_372 (cons_327 x_77437 x_77438))))
(assert (forall ((x_77439 B_78) (x_77440 list_331))
	(diseqlist_327 (cons_327 x_77439 x_77440) nil_372)))
(assert (forall ((x_77441 B_78) (x_77442 list_331) (x_77443 B_78) (x_77444 list_331))
	(=> (diseqB_2 x_77441 x_77443) (diseqlist_327 (cons_327 x_77441 x_77442) (cons_327 x_77443 x_77444)))))
(assert (forall ((x_77441 B_78) (x_77442 list_331) (x_77443 B_78) (x_77444 list_331))
	(=> (diseqlist_327 x_77442 x_77444) (diseqlist_327 (cons_327 x_77441 x_77442) (cons_327 x_77443 x_77444)))))
(declare-datatypes ((list_332 0)) (((nil_373) (cons_328 (head_652 list_331) (tail_656 list_332)))))
(declare-fun diseqlist_328 (list_332 list_332) Bool)
(declare-fun head_658 (list_331 list_332) Bool)
(declare-fun tail_662 (list_332 list_332) Bool)
(declare-fun isnil_373 (list_332) Bool)
(declare-fun iscons_328 (list_332) Bool)
(assert (forall ((x_77446 list_331) (x_77447 list_332))
	(head_658 x_77446 (cons_328 x_77446 x_77447))))
(assert (forall ((x_77446 list_331) (x_77447 list_332))
	(tail_662 x_77447 (cons_328 x_77446 x_77447))))
(assert (isnil_373 nil_373))
(assert (forall ((x_77449 list_331) (x_77450 list_332))
	(iscons_328 (cons_328 x_77449 x_77450))))
(assert (forall ((x_77451 list_331) (x_77452 list_332))
	(diseqlist_328 nil_373 (cons_328 x_77451 x_77452))))
(assert (forall ((x_77453 list_331) (x_77454 list_332))
	(diseqlist_328 (cons_328 x_77453 x_77454) nil_373)))
(assert (forall ((x_77455 list_331) (x_77456 list_332) (x_77457 list_331) (x_77458 list_332))
	(=> (diseqlist_327 x_77455 x_77457) (diseqlist_328 (cons_328 x_77455 x_77456) (cons_328 x_77457 x_77458)))))
(assert (forall ((x_77455 list_331) (x_77456 list_332) (x_77457 list_331) (x_77458 list_332))
	(=> (diseqlist_328 x_77456 x_77458) (diseqlist_328 (cons_328 x_77455 x_77456) (cons_328 x_77457 x_77458)))))
(declare-datatypes ((pair_142 0)) (((pair_143 (projpair_282 list_331) (projpair_283 list_331)))))
(declare-fun diseqpair_71 (pair_142 pair_142) Bool)
(declare-fun projpair_286 (list_331 pair_142) Bool)
(declare-fun projpair_287 (list_331 pair_142) Bool)
(declare-fun ispair_71 (pair_142) Bool)
(assert (forall ((x_77459 list_331) (x_77460 list_331))
	(projpair_286 x_77459 (pair_143 x_77459 x_77460))))
(assert (forall ((x_77459 list_331) (x_77460 list_331))
	(projpair_287 x_77460 (pair_143 x_77459 x_77460))))
(assert (forall ((x_77462 list_331) (x_77463 list_331))
	(ispair_71 (pair_143 x_77462 x_77463))))
(assert (forall ((x_77464 list_331) (x_77465 list_331) (x_77466 list_331) (x_77467 list_331))
	(=> (diseqlist_327 x_77464 x_77466) (diseqpair_71 (pair_143 x_77464 x_77465) (pair_143 x_77466 x_77467)))))
(assert (forall ((x_77464 list_331) (x_77465 list_331) (x_77466 list_331) (x_77467 list_331))
	(=> (diseqlist_327 x_77465 x_77467) (diseqpair_71 (pair_143 x_77464 x_77465) (pair_143 x_77466 x_77467)))))
(declare-datatypes ((list_333 0)) (((nil_374) (cons_329 (head_653 pair_142) (tail_657 list_333)))))
(declare-fun diseqlist_329 (list_333 list_333) Bool)
(declare-fun head_659 (pair_142 list_333) Bool)
(declare-fun tail_663 (list_333 list_333) Bool)
(declare-fun isnil_374 (list_333) Bool)
(declare-fun iscons_329 (list_333) Bool)
(assert (forall ((x_77469 pair_142) (x_77470 list_333))
	(head_659 x_77469 (cons_329 x_77469 x_77470))))
(assert (forall ((x_77469 pair_142) (x_77470 list_333))
	(tail_663 x_77470 (cons_329 x_77469 x_77470))))
(assert (isnil_374 nil_374))
(assert (forall ((x_77472 pair_142) (x_77473 list_333))
	(iscons_329 (cons_329 x_77472 x_77473))))
(assert (forall ((x_77474 pair_142) (x_77475 list_333))
	(diseqlist_329 nil_374 (cons_329 x_77474 x_77475))))
(assert (forall ((x_77476 pair_142) (x_77477 list_333))
	(diseqlist_329 (cons_329 x_77476 x_77477) nil_374)))
(assert (forall ((x_77478 pair_142) (x_77479 list_333) (x_77480 pair_142) (x_77481 list_333))
	(=> (diseqpair_71 x_77478 x_77480) (diseqlist_329 (cons_329 x_77478 x_77479) (cons_329 x_77480 x_77481)))))
(assert (forall ((x_77478 pair_142) (x_77479 list_333) (x_77480 pair_142) (x_77481 list_333))
	(=> (diseqlist_329 x_77479 x_77481) (diseqlist_329 (cons_329 x_77478 x_77479) (cons_329 x_77480 x_77481)))))
(declare-fun primEnumFromTo_6 (list_329 Int Int) Bool)
(assert (forall ((x_77106 Int) (y_2763 Int))
	(=> (gt_405 x_77106 y_2763) (primEnumFromTo_6 nil_370 x_77106 y_2763))))
(assert (forall ((x_77307 Int) (x_77148 list_329) (x_77106 Int) (y_2763 Int))
	(=> (and (le_402 x_77106 y_2763) (primEnumFromTo_6 x_77148 x_77307 y_2763) (add_430 x_77307 (S_566 Z_2455) x_77106)) (primEnumFromTo_6 (cons_325 x_77106 x_77148) x_77106 y_2763))))
(declare-fun or_415 (Bool_402 list_328) Bool)
(assert (forall ((x_77149 Bool_402) (x_77150 Bool_402) (y_2764 Bool_402) (xs_807 list_328))
	(=> (and (or_415 x_77150 xs_807) (or_416 x_77149 y_2764 x_77150)) (or_415 x_77149 (cons_324 y_2764 xs_807)))))
(assert (or_415 false_402 nil_369))
(declare-fun maximummaximum_3 (Int Int list_330) Bool)
(assert (forall ((x_77152 Int) (y_2767 Int) (y_2766 Int) (yzs_3 list_330) (x_77108 Int))
	(=> (and (le_402 y_2766 y_2767) (le_402 x_77108 y_2767) (maximummaximum_3 x_77152 y_2767 yzs_3)) (maximummaximum_3 x_77152 x_77108 (cons_326 (pair_141 y_2766 y_2767) yzs_3)))))
(assert (forall ((x_77154 Int) (y_2767 Int) (y_2766 Int) (yzs_3 list_330) (x_77108 Int))
	(=> (and (le_402 y_2766 y_2767) (gt_405 x_77108 y_2767) (maximummaximum_3 x_77154 x_77108 yzs_3)) (maximummaximum_3 x_77154 x_77108 (cons_326 (pair_141 y_2766 y_2767) yzs_3)))))
(assert (forall ((x_77156 Int) (y_2766 Int) (z_2440 Int) (yzs_3 list_330) (x_77108 Int))
	(=> (and (gt_405 y_2766 z_2440) (le_402 x_77108 y_2766) (maximummaximum_3 x_77156 y_2766 yzs_3)) (maximummaximum_3 x_77156 x_77108 (cons_326 (pair_141 y_2766 z_2440) yzs_3)))))
(assert (forall ((x_77158 Int) (y_2766 Int) (z_2440 Int) (yzs_3 list_330) (x_77108 Int))
	(=> (and (gt_405 y_2766 z_2440) (gt_405 x_77108 y_2766) (maximummaximum_3 x_77158 x_77108 yzs_3)) (maximummaximum_3 x_77158 x_77108 (cons_326 (pair_141 y_2766 z_2440) yzs_3)))))
(assert (forall ((x_77108 Int))
	(maximummaximum_3 x_77108 x_77108 nil_371)))
(declare-fun length_64 (Int list_332) Bool)
(assert (forall ((x_77161 Int) (x_77162 Int) (y_2768 list_331) (l_53 list_332))
	(=> (and (length_64 x_77162 l_53) (add_430 x_77161 (S_566 Z_2455) x_77162)) (length_64 x_77161 (cons_328 y_2768 l_53)))))
(assert (length_64 Z_2455 nil_373))
(declare-fun last_12 (list_331 list_331 list_332) Bool)
(assert (forall ((x_77164 list_331) (z_2441 list_331) (ys_225 list_332) (x_77110 list_331))
	(=> (last_12 x_77164 z_2441 ys_225) (last_12 x_77164 x_77110 (cons_328 z_2441 ys_225)))))
(assert (forall ((x_77110 list_331))
	(last_12 x_77110 x_77110 nil_373)))
(declare-fun dodeca_14 (list_330 Int list_329) Bool)
(assert (forall ((x_77309 Int) (x_77310 Int) (x_77311 Int) (x_77312 Int) (x_77313 Int) (x_77314 Int) (x_77315 Int) (x_77168 list_330) (z_2442 Int) (x_77112 list_329) (x_77111 Int))
	(=> (and (dodeca_14 x_77168 x_77111 x_77112) (add_430 x_77309 x_77111 x_77111) (add_430 x_77310 x_77309 x_77111) (add_430 x_77311 x_77310 z_2442) (add_430 x_77312 x_77111 x_77111) (add_430 x_77313 x_77312 x_77111) (add_430 x_77314 (S_566 Z_2455) z_2442) (add_430 x_77315 x_77313 x_77314)) (dodeca_14 (cons_326 (pair_141 x_77311 x_77315) x_77168) x_77111 (cons_325 z_2442 x_77112)))))
(assert (forall ((x_77111 Int))
	(dodeca_14 nil_371 x_77111 nil_370)))
(declare-fun dodeca_15 (list_330 Int list_329) Bool)
(assert (forall ((x_77316 Int) (x_77317 Int) (x_77318 Int) (x_77319 Int) (x_77320 Int) (x_77171 list_330) (z_2443 Int) (x_77114 list_329) (x_77113 Int))
	(=> (and (dodeca_15 x_77171 x_77113 x_77114) (add_430 x_77316 x_77113 x_77113) (add_430 x_77317 x_77316 z_2443) (add_430 x_77318 x_77113 x_77113) (add_430 x_77319 x_77318 x_77113) (add_430 x_77320 x_77319 z_2443)) (dodeca_15 (cons_326 (pair_141 x_77317 x_77320) x_77171) x_77113 (cons_325 z_2443 x_77114)))))
(assert (forall ((x_77113 Int))
	(dodeca_15 nil_371 x_77113 nil_370)))
(declare-fun dodeca_16 (list_330 Int list_329) Bool)
(assert (forall ((x_77321 Int) (x_77322 Int) (x_77323 Int) (x_77324 Int) (x_77174 list_330) (z_2444 Int) (x_77116 list_329) (x_77115 Int))
	(=> (and (dodeca_16 x_77174 x_77115 x_77116) (add_430 x_77321 (S_566 Z_2455) z_2444) (add_430 x_77322 x_77115 x_77321) (add_430 x_77323 x_77115 x_77115) (add_430 x_77324 x_77323 z_2444)) (dodeca_16 (cons_326 (pair_141 x_77322 x_77324) x_77174) x_77115 (cons_325 z_2444 x_77116)))))
(assert (forall ((x_77115 Int))
	(dodeca_16 nil_371 x_77115 nil_370)))
(declare-fun dodeca_17 (list_330 Int list_329) Bool)
(assert (forall ((x_77325 Int) (x_77326 Int) (x_77327 Int) (x_77177 list_330) (z_2445 Int) (x_77118 list_329) (x_77117 Int))
	(=> (and (dodeca_17 x_77177 x_77117 x_77118) (add_430 x_77325 x_77117 z_2445) (add_430 x_77326 x_77117 x_77117) (add_430 x_77327 x_77326 z_2445)) (dodeca_17 (cons_326 (pair_141 x_77325 x_77327) x_77177) x_77117 (cons_325 z_2445 x_77118)))))
(assert (forall ((x_77117 Int))
	(dodeca_17 nil_371 x_77117 nil_370)))
(declare-fun dodeca_18 (list_330 Int list_329) Bool)
(assert (forall ((x_77328 Int) (x_77180 list_330) (z_2446 Int) (x_77120 list_329) (x_77119 Int))
	(=> (and (dodeca_18 x_77180 x_77119 x_77120) (add_430 x_77328 x_77119 z_2446)) (dodeca_18 (cons_326 (pair_141 z_2446 x_77328) x_77180) x_77119 (cons_325 z_2446 x_77120)))))
(assert (forall ((x_77119 Int))
	(dodeca_18 nil_371 x_77119 nil_370)))
(declare-fun dodeca_19 (list_330 list_329) Bool)
(assert (forall ((x_77329 Int) (x_77183 list_330) (y_2775 Int) (z_2447 list_329))
	(=> (and (dodeca_19 x_77183 z_2447) (add_430 x_77329 (S_566 Z_2455) y_2775)) (dodeca_19 (cons_326 (pair_141 y_2775 x_77329) x_77183) (cons_325 y_2775 z_2447)))))
(assert (dodeca_19 nil_371 nil_370))
(declare-fun bin_17 (list_331 Int) Bool)
(assert (bin_17 nil_372 Z_2455))
(assert (forall ((x_77331 Int) (x_77187 list_331) (x_77122 Int))
	(=> (and (diseqInt x_77122 Z_2455) (bin_17 x_77187 x_77331) (div_402 x_77331 x_77122 (S_566 (S_566 Z_2455))) (mod_404 Z_2455 x_77122 (S_566 (S_566 Z_2455)))) (bin_17 (cons_327 O_10 x_77187) x_77122))))
(assert (bin_17 nil_372 Z_2455))
(assert (forall ((x_77333 Int) (x_77332 Int) (x_77190 list_331) (x_77122 Int))
	(=> (and (diseqInt x_77122 Z_2455) (diseqInt x_77332 Z_2455) (bin_17 x_77190 x_77333) (div_402 x_77333 x_77122 (S_566 (S_566 Z_2455))) (mod_404 x_77332 x_77122 (S_566 (S_566 Z_2455)))) (bin_17 (cons_327 I_9 x_77190) x_77122))))
(declare-fun bgraph_1 (list_333 list_330) Bool)
(assert (forall ((x_77192 list_331) (x_77193 list_331) (x_77194 list_333) (u_14 Int) (v_14 Int) (z_2448 list_330))
	(=> (and (bin_17 x_77192 u_14) (bin_17 x_77193 v_14) (bgraph_1 x_77194 z_2448)) (bgraph_1 (cons_329 (pair_143 x_77192 x_77193) x_77194) (cons_326 (pair_141 u_14 v_14) z_2448)))))
(assert (bgraph_1 nil_374 nil_371))
(declare-fun beq_1 (Bool_402 list_331 list_331) Bool)
(assert (forall ((x_77196 Bool_402) (zs_72 list_331) (xs_808 list_331))
	(=> (beq_1 x_77196 xs_808 zs_72) (beq_1 x_77196 (cons_327 O_10 xs_808) (cons_327 O_10 zs_72)))))
(assert (forall ((zs_72 list_331) (xs_808 list_331))
	(beq_1 false_402 (cons_327 O_10 xs_808) (cons_327 I_9 zs_72))))
(assert (forall ((xs_808 list_331))
	(beq_1 false_402 (cons_327 O_10 xs_808) nil_372)))
(assert (forall ((ys_226 list_331) (xs_808 list_331))
	(beq_1 false_402 (cons_327 I_9 xs_808) (cons_327 O_10 ys_226))))
(assert (forall ((x_77201 Bool_402) (ys_226 list_331) (xs_808 list_331))
	(=> (beq_1 x_77201 xs_808 ys_226) (beq_1 x_77201 (cons_327 I_9 xs_808) (cons_327 I_9 ys_226)))))
(assert (forall ((xs_808 list_331))
	(beq_1 false_402 (cons_327 I_9 xs_808) nil_372)))
(assert (forall ((z_2449 B_78) (x_77128 list_331))
	(beq_1 false_402 nil_372 (cons_327 z_2449 x_77128))))
(assert (beq_1 true_402 nil_372 nil_372))
(declare-fun bpath_2 (list_328 list_331 list_331 list_333) Bool)
(assert (forall ((x_77296 Bool_402) (x_77297 Bool_402) (x_77298 Bool_402) (x_77207 Bool_402) (x_77208 Bool_402) (x_77209 Bool_402) (x_77210 Bool_402) (x_77211 list_328) (u_15 list_331) (v_15 list_331) (x_77131 list_333) (x_77129 list_331) (y_2778 list_331))
	(=> (and (beq_1 x_77207 u_15 x_77129) (beq_1 x_77208 v_15 y_2778) (beq_1 x_77209 u_15 y_2778) (beq_1 x_77210 v_15 x_77129) (bpath_2 x_77211 x_77129 y_2778 x_77131) (and_405 x_77296 x_77207 x_77208) (and_405 x_77297 x_77209 x_77210) (or_416 x_77298 x_77296 x_77297)) (bpath_2 (cons_324 x_77298 x_77211) x_77129 y_2778 (cons_329 (pair_143 u_15 v_15) x_77131)))))
(assert (forall ((x_77129 list_331) (y_2778 list_331))
	(bpath_2 nil_369 x_77129 y_2778 nil_374)))
(declare-fun bpath_3 (Bool_402 list_332 list_333) Bool)
(assert (forall ((x_77213 Bool_402) (x_77214 list_328) (x_77215 Bool_402) (x_77216 Bool_402) (y_2780 list_331) (xs_809 list_332) (z_2451 list_331) (y_2779 list_333))
	(=> (and (bpath_2 x_77214 z_2451 y_2780 y_2779) (or_415 x_77215 x_77214) (bpath_3 x_77216 (cons_328 y_2780 xs_809) y_2779) (and_405 x_77213 x_77215 x_77216)) (bpath_3 x_77213 (cons_328 z_2451 (cons_328 y_2780 xs_809)) y_2779))))
(assert (forall ((z_2451 list_331) (y_2779 list_333))
	(bpath_3 true_402 (cons_328 z_2451 nil_373) y_2779)))
(assert (forall ((y_2779 list_333))
	(bpath_3 true_402 nil_373 y_2779)))
(declare-fun belem_2 (list_328 list_331 list_332) Bool)
(assert (forall ((x_77220 Bool_402) (x_77221 list_328) (z_2452 list_331) (x_77135 list_332) (x_77134 list_331))
	(=> (and (beq_1 x_77220 x_77134 z_2452) (belem_2 x_77221 x_77134 x_77135)) (belem_2 (cons_324 x_77220 x_77221) x_77134 (cons_328 z_2452 x_77135)))))
(assert (forall ((x_77134 list_331))
	(belem_2 nil_369 x_77134 nil_373)))
(declare-fun belem_3 (Bool_402 list_331 list_332) Bool)
(assert (forall ((x_77223 Bool_402) (x_77224 list_328) (x_77136 list_331) (y_2782 list_332))
	(=> (and (belem_2 x_77224 x_77136 y_2782) (or_415 x_77223 x_77224)) (belem_3 x_77223 x_77136 y_2782))))
(declare-fun bunique_1 (Bool_402 list_332) Bool)
(assert (forall ((x_77300 Bool_402) (x_77226 Bool_402) (x_77227 Bool_402) (x_77228 Bool_402) (y_2783 list_331) (xs_810 list_332))
	(=> (and (belem_3 x_77227 y_2783 xs_810) (bunique_1 x_77228 xs_810) (not_407 x_77300 x_77227) (and_405 x_77226 x_77300 x_77228)) (bunique_1 x_77226 (cons_328 y_2783 xs_810)))))
(assert (bunique_1 true_402 nil_373))
(declare-fun btour_1 (Bool_402 list_332 list_330) Bool)
(assert (forall ((x_77334 Int) (x_77302 Bool_402) (x_77232 Bool_402) (x_77233 list_331) (x_77234 Bool_402) (x_77235 list_333) (x_77236 Bool_402) (x_77237 Bool_402) (x_77230 Int) (x_77231 Int) (u_16 Int) (v_16 Int) (vs_7 list_330) (x_77139 list_331) (x_77140 list_332))
	(=> (and (le_402 u_16 v_16) (last_12 x_77233 x_77139 x_77140) (beq_1 x_77234 x_77139 x_77233) (bgraph_1 x_77235 (cons_326 (pair_141 u_16 v_16) vs_7)) (bpath_3 x_77236 (cons_328 x_77139 x_77140) x_77235) (bunique_1 x_77237 x_77140) (length_64 x_77230 (cons_328 x_77139 x_77140)) (maximummaximum_3 x_77231 v_16 vs_7) (and_405 x_77302 x_77234 x_77236) (and_405 x_77232 x_77302 x_77237) (add_430 x_77334 (S_566 Z_2455) x_77231) (add_430 x_77230 (S_566 Z_2455) x_77334)) (btour_1 x_77232 (cons_328 x_77139 x_77140) (cons_326 (pair_141 u_16 v_16) vs_7)))))
(assert (forall ((x_77336 Int) (x_77337 Int) (x_77238 Int) (x_77239 Int) (u_16 Int) (v_16 Int) (vs_7 list_330) (x_77139 list_331) (x_77140 list_332))
	(=> (and (diseqInt x_77238 x_77337) (le_402 u_16 v_16) (length_64 x_77238 (cons_328 x_77139 x_77140)) (maximummaximum_3 x_77239 v_16 vs_7) (add_430 x_77336 (S_566 Z_2455) x_77239) (add_430 x_77337 (S_566 Z_2455) x_77336)) (btour_1 false_402 (cons_328 x_77139 x_77140) (cons_326 (pair_141 u_16 v_16) vs_7)))))
(assert (forall ((x_77338 Int) (x_77304 Bool_402) (x_77243 Bool_402) (x_77244 list_331) (x_77245 Bool_402) (x_77246 list_333) (x_77247 Bool_402) (x_77248 Bool_402) (x_77241 Int) (x_77242 Int) (u_16 Int) (v_16 Int) (vs_7 list_330) (x_77139 list_331) (x_77140 list_332))
	(=> (and (gt_405 u_16 v_16) (last_12 x_77244 x_77139 x_77140) (beq_1 x_77245 x_77139 x_77244) (bgraph_1 x_77246 (cons_326 (pair_141 u_16 v_16) vs_7)) (bpath_3 x_77247 (cons_328 x_77139 x_77140) x_77246) (bunique_1 x_77248 x_77140) (length_64 x_77241 (cons_328 x_77139 x_77140)) (maximummaximum_3 x_77242 u_16 vs_7) (and_405 x_77304 x_77245 x_77247) (and_405 x_77243 x_77304 x_77248) (add_430 x_77338 (S_566 Z_2455) x_77242) (add_430 x_77241 (S_566 Z_2455) x_77338)) (btour_1 x_77243 (cons_328 x_77139 x_77140) (cons_326 (pair_141 u_16 v_16) vs_7)))))
(assert (forall ((x_77340 Int) (x_77341 Int) (x_77249 Int) (x_77250 Int) (u_16 Int) (v_16 Int) (vs_7 list_330) (x_77139 list_331) (x_77140 list_332))
	(=> (and (diseqInt x_77249 x_77341) (gt_405 u_16 v_16) (length_64 x_77249 (cons_328 x_77139 x_77140)) (maximummaximum_3 x_77250 u_16 vs_7) (add_430 x_77340 (S_566 Z_2455) x_77250) (add_430 x_77341 (S_566 Z_2455) x_77340)) (btour_1 false_402 (cons_328 x_77139 x_77140) (cons_326 (pair_141 u_16 v_16) vs_7)))))
(assert (forall ((x_77139 list_331) (x_77140 list_332))
	(btour_1 false_402 (cons_328 x_77139 x_77140) nil_371)))
(assert (forall ((z_2453 pair_140) (x_77142 list_330))
	(btour_1 false_402 nil_373 (cons_326 z_2453 x_77142))))
(assert (btour_1 true_402 nil_373 nil_371))
(declare-fun x_77143 (list_330 list_330 list_330) Bool)
(assert (forall ((x_77256 list_330) (z_2454 pair_140) (xs_811 list_330) (y_2785 list_330))
	(=> (x_77143 x_77256 xs_811 y_2785) (x_77143 (cons_326 z_2454 x_77256) (cons_326 z_2454 xs_811) y_2785))))
(assert (forall ((x_77257 list_330))
	(x_77143 x_77257 nil_371 x_77257)))
(declare-fun dodeca_20 (list_330 Int) Bool)
(assert (dodeca_20 nil_371 Z_2455))
(assert (forall ((x_77354 Int) (x_77351 Int) (x_77352 Int) (x_77353 Int) (x_77345 Int) (x_77346 Int) (x_77347 Int) (x_77348 Int) (x_77349 Int) (x_77350 Int) (x_77344 Int) (x_77343 Int) (x_77342 Int) (x_77259 list_330) (x_77260 list_329) (x_77261 list_330) (x_77262 list_329) (x_77263 list_330) (x_77264 list_329) (x_77265 list_330) (x_77266 list_329) (x_77267 list_330) (x_77268 list_329) (x_77269 list_330) (x_77270 list_329) (x_77271 list_330) (x_77272 list_330) (x_77273 list_330) (x_77274 list_330) (x_77275 list_330) (x_77145 Int))
	(=> (and (diseqInt x_77145 Z_2455) (primEnumFromTo_6 x_77260 Z_2455 x_77342) (dodeca_19 x_77261 x_77260) (primEnumFromTo_6 x_77262 Z_2455 x_77145) (dodeca_18 x_77263 x_77145 x_77262) (primEnumFromTo_6 x_77264 Z_2455 x_77145) (dodeca_17 x_77265 x_77145 x_77264) (primEnumFromTo_6 x_77266 Z_2455 x_77343) (dodeca_16 x_77267 x_77145 x_77266) (primEnumFromTo_6 x_77268 Z_2455 x_77145) (dodeca_15 x_77269 x_77145 x_77268) (primEnumFromTo_6 x_77270 Z_2455 x_77344) (dodeca_14 x_77271 x_77145 x_77270) (x_77143 x_77272 x_77269 (cons_326 (pair_141 x_77348 x_77350) x_77271)) (x_77143 x_77273 (cons_326 (pair_141 x_77145 x_77353) x_77267) x_77272) (x_77143 x_77274 x_77265 x_77273) (x_77143 x_77275 x_77263 x_77274) (x_77143 x_77259 (cons_326 (pair_141 x_77354 Z_2455) x_77261) x_77275) (minus_423 x_77354 x_77145 (S_566 Z_2455)) (add_430 x_77351 x_77145 x_77145) (minus_423 x_77352 x_77145 (S_566 Z_2455)) (add_430 x_77353 x_77351 x_77352) (add_430 x_77345 x_77145 x_77145) (add_430 x_77346 x_77345 x_77145) (minus_423 x_77347 x_77145 (S_566 Z_2455)) (add_430 x_77348 x_77346 x_77347) (add_430 x_77349 x_77145 x_77145) (add_430 x_77350 x_77349 x_77145) (minus_423 x_77344 x_77145 (S_566 Z_2455)) (minus_423 x_77343 x_77145 (S_566 Z_2455)) (minus_423 x_77342 x_77145 (S_566 Z_2455))) (dodeca_20 x_77259 x_77145))))
(assert (forall ((x_77367 Int) (x_77364 Int) (x_77365 Int) (x_77366 Int) (x_77358 Int) (x_77359 Int) (x_77360 Int) (x_77361 Int) (x_77362 Int) (x_77363 Int) (x_77357 Int) (x_77356 Int) (x_77355 Int) (x_77277 list_329) (x_77278 list_330) (x_77279 list_329) (x_77280 list_330) (x_77281 list_329) (x_77282 list_330) (x_77283 list_329) (x_77284 list_330) (x_77285 list_329) (x_77286 list_330) (x_77287 list_329) (x_77288 list_330) (x_77289 list_330) (x_77290 list_330) (x_77291 list_330) (x_77292 list_330) (x_77293 list_330) (p_483 list_332))
	(=> (and true (primEnumFromTo_6 x_77277 Z_2455 x_77355) (dodeca_19 x_77278 x_77277) (primEnumFromTo_6 x_77279 Z_2455 (S_566 (S_566 (S_566 (S_566 (S_566 Z_2455)))))) (dodeca_18 x_77280 (S_566 (S_566 (S_566 (S_566 (S_566 Z_2455))))) x_77279) (primEnumFromTo_6 x_77281 Z_2455 (S_566 (S_566 (S_566 (S_566 (S_566 Z_2455)))))) (dodeca_17 x_77282 (S_566 (S_566 (S_566 (S_566 (S_566 Z_2455))))) x_77281) (primEnumFromTo_6 x_77283 Z_2455 x_77356) (dodeca_16 x_77284 (S_566 (S_566 (S_566 (S_566 (S_566 Z_2455))))) x_77283) (primEnumFromTo_6 x_77285 Z_2455 (S_566 (S_566 (S_566 (S_566 (S_566 Z_2455)))))) (dodeca_15 x_77286 (S_566 (S_566 (S_566 (S_566 (S_566 Z_2455))))) x_77285) (primEnumFromTo_6 x_77287 Z_2455 x_77357) (dodeca_14 x_77288 (S_566 (S_566 (S_566 (S_566 (S_566 Z_2455))))) x_77287) (x_77143 x_77289 x_77286 (cons_326 (pair_141 x_77361 x_77363) x_77288)) (x_77143 x_77290 (cons_326 (pair_141 (S_566 (S_566 (S_566 (S_566 (S_566 Z_2455))))) x_77366) x_77284) x_77289) (x_77143 x_77291 x_77282 x_77290) (x_77143 x_77292 x_77280 x_77291) (x_77143 x_77293 (cons_326 (pair_141 x_77367 Z_2455) x_77278) x_77292) (btour_1 true_402 p_483 x_77293) (minus_423 x_77367 (S_566 (S_566 (S_566 (S_566 (S_566 Z_2455))))) (S_566 Z_2455)) (add_430 x_77364 (S_566 (S_566 (S_566 (S_566 (S_566 Z_2455))))) (S_566 (S_566 (S_566 (S_566 (S_566 Z_2455)))))) (minus_423 x_77365 (S_566 (S_566 (S_566 (S_566 (S_566 Z_2455))))) (S_566 Z_2455)) (add_430 x_77366 x_77364 x_77365) (add_430 x_77358 (S_566 (S_566 (S_566 (S_566 (S_566 Z_2455))))) (S_566 (S_566 (S_566 (S_566 (S_566 Z_2455)))))) (add_430 x_77359 x_77358 (S_566 (S_566 (S_566 (S_566 (S_566 Z_2455)))))) (minus_423 x_77360 (S_566 (S_566 (S_566 (S_566 (S_566 Z_2455))))) (S_566 Z_2455)) (add_430 x_77361 x_77359 x_77360) (add_430 x_77362 (S_566 (S_566 (S_566 (S_566 (S_566 Z_2455))))) (S_566 (S_566 (S_566 (S_566 (S_566 Z_2455)))))) (add_430 x_77363 x_77362 (S_566 (S_566 (S_566 (S_566 (S_566 Z_2455)))))) (minus_423 x_77357 (S_566 (S_566 (S_566 (S_566 (S_566 Z_2455))))) (S_566 Z_2455)) (minus_423 x_77356 (S_566 (S_566 (S_566 (S_566 (S_566 Z_2455))))) (S_566 Z_2455)) (minus_423 x_77355 (S_566 (S_566 (S_566 (S_566 (S_566 Z_2455))))) (S_566 Z_2455))) false)))
(check-sat)
